c FILE /home/rafael/Documents/HappySet/MIHS/inputs/happygen/output/graph_d_regular_k7_p0.5_v50_20241127_082651.txt
c SOURCE This is a d-regular graph formed for the happy graph colouring problem.
c DESCRIPTION It was generated using the problem generator of Rhyd Lewis
c
c GRAPH STATS
c Seed                             = 766399675
c Number of Nodes                  = 50
c Number of colours k              = 7
c Number of pre-assignments        = 25
c Degree of all vertices           = 6
c Density                          = 0.122449
c 
c The degrees of nodes 1 to 50, respectively, are as follows 
c [6, 6, 6, 6, 6, 6, 6, 6, 6, 6, 6, 6, 6, 6, 6, 6, 6, 6, 6, 6, 6, 6, 6, 6, 6, 6, 
c  6, 6, 6, 6, 6, 6, 6, 6, 6, 6, 6, 6, 6, 6, 6, 6, 6, 6, 6, 6, 6, 6, 6, 6] 
c  
p edge 50 150 7
e 1 4
e 1 11
e 1 12
e 1 16
e 1 25
e 1 48
e 2 10
e 2 12
e 2 15
e 2 27
e 2 38
e 2 45
e 3 25
e 3 26
e 3 27
e 3 30
e 3 35
e 3 41
e 4 28
e 4 32
e 4 35
e 4 36
e 4 49
e 5 14
e 5 15
e 5 19
e 5 33
e 5 38
e 5 43
e 6 13
e 6 19
e 6 22
e 6 24
e 6 37
e 6 39
e 7 10
e 7 21
e 7 22
e 7 32
e 7 39
e 7 47
e 8 15
e 8 22
e 8 32
e 8 40
e 8 42
e 8 50
e 9 17
e 9 27
e 9 34
e 9 39
e 9 47
e 9 50
e 10 11
e 10 21
e 10 36
e 10 46
e 11 21
e 11 30
e 11 31
e 11 35
e 12 14
e 12 37
e 12 44
e 12 46
e 13 17
e 13 20
e 13 25
e 13 45
e 13 48
e 14 28
e 14 29
e 14 36
e 14 41
e 15 32
e 15 41
e 15 42
e 16 31
e 16 33
e 16 45
e 16 47
e 16 49
e 17 22
e 17 40
e 17 44
e 17 47
e 18 20
e 18 33
e 18 36
e 18 42
e 18 44
e 18 46
e 19 21
e 19 23
e 19 25
e 19 38
e 20 26
e 20 31
e 20 39
e 20 43
e 21 33
e 21 40
e 22 31
e 22 44
e 23 26
e 23 30
e 23 31
e 23 34
e 23 35
e 24 25
e 24 32
e 24 34
e 24 44
e 24 47
e 25 45
e 26 28
e 26 38
e 26 49
e 27 32
e 27 40
e 27 42
e 28 30
e 28 34
e 28 43
e 29 34
e 29 35
e 29 40
e 29 46
e 29 47
e 30 33
e 30 48
e 31 41
e 33 40
e 34 43
e 35 46
e 36 38
e 36 39
e 37 41
e 37 44
e 37 48
e 37 49
e 38 49
e 39 48
e 41 50
e 42 43
e 42 45
e 43 45
e 46 50
e 48 50
e 49 50
n 1 7
n 2 3
n 3 5
n 5 4
n 6 5
n 7 5
n 9 5
n 11 7
n 17 5
n 20 7
n 22 5
n 23 2
n 24 5
n 28 5
n 32 5
n 33 4
n 36 6
n 41 5
n 42 3
n 44 5
n 45 3
n 46 6
n 47 5
n 48 7
n 49 1
